p cnf 200 1110
-101 31 0
-101 81 0
-101 -49 0
-101 -30 0
-101 7 0
-101 -27 0
-101 71 0
-101 -11 0
-101 79 0
-101 93 0
101 -31 -81 49 30 -7 27 -71 11 -79 -93 0
-102 54 0
-102 -52 0
-102 29 0
-102 -47 0
-102 -38 0
-102 -33 0
-102 39 0
-102 93 0
-102 19 0
-102 66 0
102 -54 52 -29 47 38 33 -39 -93 -19 -66 0
-103 27 0
-103 -17 0
-103 -12 0
-103 32 0
-103 45 0
-103 14 0
-103 36 0
-103 -96 0
-103 -10 0
-103 -49 0
103 -27 17 12 -32 -45 -14 -36 96 10 49 0
-104 -25 0
-104 49 0
-104 93 0
-104 -17 0
-104 -46 0
-104 50 0
-104 30 0
-104 -95 0
-104 -19 0
-104 35 0
104 25 -49 -93 17 46 -50 -30 95 19 -35 0
-105 -96 0
-105 -64 0
-105 -13 0
-105 -87 0
-105 -68 0
-105 32 0
-105 8 0
-105 -37 0
-105 -50 0
-105 -2 0
105 96 64 13 87 68 -32 -8 37 50 2 0
-106 -47 0
-106 -1 0
-106 57 0
-106 -85 0
-106 79 0
-106 -45 0
-106 12 0
-106 -95 0
-106 26 0
-106 82 0
106 47 1 -57 85 -79 45 -12 95 -26 -82 0
-107 44 0
-107 9 0
-107 75 0
-107 -17 0
-107 -5 0
-107 -83 0
-107 -40 0
-107 -24 0
-107 -95 0
-107 -51 0
107 -44 -9 -75 17 5 83 40 24 95 51 0
-108 98 0
-108 -25 0
-108 -4 0
-108 87 0
-108 97 0
-108 11 0
-108 78 0
-108 92 0
-108 95 0
-108 -10 0
108 -98 25 4 -87 -97 -11 -78 -92 -95 10 0
-109 35 0
-109 -11 0
-109 95 0
-109 -45 0
-109 -65 0
-109 -96 0
-109 -31 0
-109 -71 0
-109 13 0
-109 87 0
109 -35 11 -95 45 65 96 31 71 -13 -87 0
-110 96 0
-110 -13 0
-110 97 0
-110 -29 0
-110 34 0
-110 -23 0
-110 -72 0
-110 -90 0
-110 -51 0
-110 -36 0
110 -96 13 -97 29 -34 23 72 90 51 36 0
101 102 103 104 105 106 107 108 109 110 0
-111 -59 0
-111 100 0
-111 -16 0
-111 -75 0
-111 -30 0
-111 50 0
-111 -13 0
-111 87 0
-111 -18 0
-111 -97 0
111 59 -100 16 75 30 -50 13 -87 18 97 0
-112 -37 0
-112 -99 0
-112 56 0
-112 -26 0
-112 -80 0
-112 -42 0
-112 63 0
-112 -64 0
-112 89 0
-112 83 0
112 37 99 -56 26 80 42 -63 64 -89 -83 0
-113 59 0
-113 9 0
-113 37 0
-113 6 0
-113 -92 0
-113 53 0
-113 97 0
-113 -90 0
-113 45 0
-113 51 0
113 -59 -9 -37 -6 92 -53 -97 90 -45 -51 0
-114 -86 0
-114 3 0
-114 -31 0
-114 -53 0
-114 -49 0
-114 -7 0
-114 21 0
-114 78 0
-114 -22 0
-114 89 0
114 86 -3 31 53 49 7 -21 -78 22 -89 0
-115 8 0
-115 63 0
-115 -90 0
-115 7 0
-115 -30 0
-115 -5 0
-115 -27 0
-115 -78 0
-115 4 0
-115 39 0
115 -8 -63 90 -7 30 5 27 78 -4 -39 0
-116 100 0
-116 94 0
-116 -42 0
-116 -18 0
-116 -75 0
-116 -89 0
-116 -10 0
-116 -41 0
-116 80 0
-116 21 0
116 -100 -94 42 18 75 89 10 41 -80 -21 0
-117 90 0
-117 91 0
-117 -21 0
-117 -7 0
-117 85 0
-117 53 0
-117 54 0
-117 -24 0
-117 -19 0
-117 -79 0
117 -90 -91 21 7 -85 -53 -54 24 19 79 0
-118 12 0
-118 -85 0
-118 11 0
-118 46 0
-118 27 0
-118 -100 0
-118 39 0
-118 44 0
-118 42 0
-118 -47 0
118 -12 85 -11 -46 -27 100 -39 -44 -42 47 0
-119 -87 0
-119 49 0
-119 75 0
-119 61 0
-119 -51 0
-119 -57 0
-119 85 0
-119 -90 0
-119 27 0
-119 -65 0
119 87 -49 -75 -61 51 57 -85 90 -27 65 0
-120 -60 0
-120 89 0
-120 94 0
-120 13 0
-120 85 0
-120 -53 0
-120 -14 0
-120 69 0
-120 32 0
-120 -50 0
120 60 -89 -94 -13 -85 53 14 -69 -32 50 0
111 112 113 114 115 116 117 118 119 120 0
-121 39 0
-121 53 0
-121 83 0
-121 33 0
-121 -44 0
-121 88 0
-121 5 0
-121 -97 0
-121 76 0
-121 57 0
121 -39 -53 -83 -33 44 -88 -5 97 -76 -57 0
-122 19 0
-122 -81 0
-122 -12 0
-122 78 0
-122 -72 0
-122 -34 0
-122 24 0
-122 -10 0
-122 -52 0
-122 -38 0
122 -19 81 12 -78 72 34 -24 10 52 38 0
-123 39 0
-123 -54 0
-123 63 0
-123 -23 0
-123 57 0
-123 -45 0
-123 14 0
-123 -76 0
-123 -75 0
-123 17 0
123 -39 54 -63 23 -57 45 -14 76 75 -17 0
-124 91 0
-124 -33 0
-124 -19 0
-124 -98 0
-124 85 0
-124 37 0
-124 54 0
-124 95 0
-124 11 0
-124 -99 0
124 -91 33 19 98 -85 -37 -54 -95 -11 99 0
-125 -83 0
-125 74 0
-125 32 0
-125 -95 0
-125 -79 0
-125 -82 0
-125 -93 0
-125 100 0
-125 -84 0
-125 -24 0
125 83 -74 -32 95 79 82 93 -100 84 24 0
-126 -28 0
-126 -42 0
-126 -88 0
-126 61 0
-126 45 0
-126 -78 0
-126 -17 0
-126 51 0
-126 -12 0
-126 74 0
126 28 42 88 -61 -45 78 17 -51 12 -74 0
-127 -89 0
-127 -81 0
-127 -72 0
-127 16 0
-127 -69 0
-127 -98 0
-127 -100 0
-127 75 0
-127 42 0
-127 26 0
127 89 81 72 -16 69 98 100 -75 -42 -26 0
-128 85 0
-128 -67 0
-128 -77 0
-128 14 0
-128 16 0
-128 -44 0
-128 -64 0
-128 82 0
-128 23 0
-128 32 0
128 -85 67 77 -14 -16 44 64 -82 -23 -32 0
-129 68 0
-129 10 0
-129 65 0
-129 74 0
-129 -80 0
-129 -35 0
-129 60 0
-129 -51 0
-129 -25 0
-129 -21 0
129 -68 -10 -65 -74 80 35 -60 51 25 21 0
-130 51 0
-130 45 0
-130 -85 0
-130 -81 0
-130 -46 0
-130 92 0
-130 69 0
-130 -97 0
-130 -39 0
-130 27 0
130 -51 -45 85 81 46 -92 -69 97 39 -27 0
121 122 123 124 125 126 127 128 129 130 0
-131 -52 0
-131 -48 0
-131 -43 0
-131 40 0
-131 -90 0
-131 -26 0
-131 -14 0
-131 21 0
-131 54 0
-131 94 0
131 52 48 43 -40 90 26 14 -21 -54 -94 0
-132 77 0
-132 93 0
-132 35 0
-132 -73 0
-132 85 0
-132 87 0
-132 10 0
-132 -75 0
-132 52 0
-132 -19 0
132 -77 -93 -35 73 -85 -87 -10 75 -52 19 0
-133 -8 0
-133 64 0
-133 74 0
-133 67 0
-133 48 0
-133 -68 0
-133 -83 0
-133 19 0
-133 96 0
-133 -53 0
133 8 -64 -74 -67 -48 68 83 -19 -96 53 0
-134 -54 0
-134 41 0
-134 -26 0
-134 -29 0
-134 -85 0
-134 7 0
-134 94 0
-134 38 0
-134 -12 0
-134 -98 0
134 54 -41 26 29 85 -7 -94 -38 12 98 0
-135 -43 0
-135 51 0
-135 -29 0
-135 -79 0
-135 -55 0
-135 -70 0
-135 -94 0
-135 -40 0
-135 -24 0
-135 74 0
135 43 -51 29 79 55 70 94 40 24 -74 0
-136 24 0
-136 65 0
-136 55 0
-136 40 0
-136 -76 0
-136 85 0
-136 3 0
-136 -47 0
-136 -73 0
-136 35 0
136 -24 -65 -55 -40 76 -85 -3 47 73 -35 0
-137 -36 0
-137 -65 0
-137 -31 0
-137 -63 0
-137 14 0
-137 -98 0
-137 -56 0
-137 -32 0
-137 80 0
-137 30 0
137 36 65 31 63 -14 98 56 32 -80 -30 0
-138 -2 0
-138 -1 0
-138 87 0
-138 -44 0
-138 -45 0
-138 51 0
-138 -78 0
-138 27 0
-138 60 0
-138 38 0
138 2 1 -87 44 45 -51 78 -27 -60 -38 0
-139 78 0
-139 5 0
-139 17 0
-139 41 0
-139 -9 0
-139 -55 0
-139 2 0
-139 60 0
-139 44 0
-139 50 0
139 -78 -5 -17 -41 9 55 -2 -60 -44 -50 0
-140 -68 0
-140 -25 0
-140 -83 0
-140 -70 0
-140 -96 0
-140 -46 0
-140 -52 0
-140 -38 0
-140 11 0
-140 -15 0
140 68 25 83 70 96 46 52 38 -11 15 0
131 132 133 134 135 136 137 138 139 140 0
-141 -79 0
-141 22 0
-141 -89 0
-141 2 0
-141 6 0
-141 65 0
-141 90 0
-141 -67 0
-141 -50 0
-141 60 0
141 79 -22 89 -2 -6 -65 -90 67 50 -60 0
-142 -8 0
-142 -44 0
-142 -52 0
-142 24 0
-142 -57 0
-142 5 0
-142 84 0
-142 79 0
-142 17 0
-142 -69 0
142 8 44 52 -24 57 -5 -84 -79 -17 69 0
-143 79 0
-143 -5 0
-143 -77 0
-143 36 0
-143 -54 0
-143 -71 0
-143 69 0
-143 -23 0
-143 32 0
-143 -83 0
143 -79 5 77 -36 54 71 -69 23 -32 83 0
-144 79 0
-144 17 0
-144 54 0
-144 49 0
-144 -28 0
-144 10 0
-144 13 0
-144 66 0
-144 -11 0
-144 -57 0
144 -79 -17 -54 -49 28 -10 -13 -66 11 57 0
-145 50 0
-145 -85 0
-145 -87 0
-145 -89 0
-145 51 0
-145 15 0
-145 -60 0
-145 28 0
-145 -44 0
-145 96 0
145 -50 85 87 89 -51 -15 60 -28 44 -96 0
-146 -89 0
-146 48 0
-146 -66 0
-146 -45 0
-146 74 0
-146 -26 0
-146 -76 0
-146 -78 0
-146 -90 0
-146 -19 0
146 89 -48 66 45 -74 26 76 78 90 19 0
-147 78 0
-147 -31 0
-147 -22 0
-147 -85 0
-147 -15 0
-147 -8 0
-147 66 0
-147 37 0
-147 -24 0
-147 42 0
147 -78 31 22 85 15 8 -66 -37 24 -42 0
-148 -53 0
-148 -40 0
-148 -32 0
-148 85 0
-148 14 0
-148 63 0
-148 92 0
-148 30 0
-148 98 0
-148 5 0
148 53 40 32 -85 -14 -63 -92 -30 -98 -5 0
-149 98 0
-149 -85 0
-149 -43 0
-149 73 0
-149 -52 0
-149 -89 0
-149 -100 0
-149 46 0
-149 67 0
-149 -56 0
149 -98 85 43 -73 52 89 100 -46 -67 56 0
-150 43 0
-150 -56 0
-150 -30 0
-150 -22 0
-150 -21 0
-150 31 0
-150 -58 0
-150 46 0
-150 -10 0
-150 72 0
150 -43 56 30 22 21 -31 58 -46 10 -72 0
141 142 143 144 145 146 147 148 149 150 0
-151 -52 0
-151 95 0
-151 -91 0
-151 36 0
-151 23 0
-151 56 0
-151 -38 0
-151 -1 0
-151 53 0
-151 87 0
151 52 -95 91 -36 -23 -56 38 1 -53 -87 0
-152 24 0
-152 6 0
-152 89 0
-152 -99 0
-152 -71 0
-152 -58 0
-152 -19 0
-152 -97 0
-152 -14 0
-152 68 0
152 -24 -6 -89 99 71 58 19 97 14 -68 0
-153 90 0
-153 -32 0
-153 96 0
-153 -10 0
-153 43 0
-153 19 0
-153 12 0
-153 -54 0
-153 -73 0
-153 83 0
153 -90 32 -96 10 -43 -19 -12 54 73 -83 0
-154 -88 0
-154 -94 0
-154 -84 0
-154 -31 0
-154 91 0
-154 -45 0
-154 -89 0
-154 -40 0
-154 -8 0
-154 -54 0
154 88 94 84 31 -91 45 89 40 8 54 0
-155 -49 0
-155 -47 0
-155 50 0
-155 90 0
-155 19 0
-155 -20 0
-155 -96 0
-155 -30 0
-155 -64 0
-155 -35 0
155 49 47 -50 -90 -19 20 96 30 64 35 0
-156 -29 0
-156 -23 0
-156 -95 0
-156 -97 0
-156 -30 0
-156 60 0
-156 12 0
-156 81 0
-156 -28 0
-156 -92 0
156 29 23 95 97 30 -60 -12 -81 28 92 0
-157 34 0
-157 -76 0
-157 -65 0
-157 -83 0
-157 51 0
-157 -2 0
-157 44 0
-157 31 0
-157 -8 0
-157 -73 0
157 -34 76 65 83 -51 2 -44 -31 8 73 0
-158 -83 0
-158 5 0
-158 -20 0
-158 -31 0
-158 -9 0
-158 -3 0
-158 51 0
-158 58 0
-158 66 0
-158 -56 0
158 83 -5 20 31 9 3 -51 -58 -66 56 0
-159 -89 0
-159 76 0
-159 24 0
-159 -33 0
-159 -14 0
-159 -77 0
-159 9 0
-159 4 0
-159 -12 0
-159 38 0
159 89 -76 -24 33 14 77 -9 -4 12 -38 0
-160 9 0
-160 -52 0
-160 -62 0
-160 -81 0
-160 75 0
-160 14 0
-160 -93 0
-160 -98 0
-160 33 0
-160 -60 0
160 -9 52 62 81 -75 -14 93 98 -33 60 0
151 152 153 154 155 156 157 158 159 160 0
-161 -24 0
-161 -25 0
-161 23 0
-161 -8 0
-161 -46 0
-161 56 0
-161 4 0
-161 -98 0
-161 87 0
-161 96 0
161 24 25 -23 8 46 -56 -4 98 -87 -96 0
-162 36 0
-162 2 0
-162 80 0
-162 -22 0
-162 -5 0
-162 73 0
-162 -47 0
-162 87 0
-162 94 0
-162 41 0
162 -36 -2 -80 22 5 -73 47 -87 -94 -41 0
-163 82 0
-163 -74 0
-163 -99 0
-163 -83 0
-163 -63 0
-163 -100 0
-163 -4 0
-163 53 0
-163 -55 0
-163 -10 0
163 -82 74 99 83 63 100 4 -53 55 10 0
-164 -19 0
-164 -47 0
-164 64 0
-164 -27 0
-164 65 0
-164 -83 0
-164 45 0
-164 43 0
-164 38 0
-164 2 0
164 19 47 -64 27 -65 83 -45 -43 -38 -2 0
-165 6 0
-165 85 0
-165 27 0
-165 79 0
-165 -78 0
-165 98 0
-165 57 0
-165 4 0
-165 -11 0
-165 92 0
165 -6 -85 -27 -79 78 -98 -57 -4 11 -92 0
-166 25 0
-166 -5 0
-166 -10 0
-166 -12 0
-166 -51 0
-166 -55 0
-166 -65 0
-166 77 0
-166 44 0
-166 30 0
166 -25 5 10 12 51 55 65 -77 -44 -30 0
-167 -82 0
-167 7 0
-167 10 0
-167 -5 0
-167 19 0
-167 56 0
-167 25 0
-167 -12 0
-167 -42 0
-167 -23 0
167 82 -7 -10 5 -19 -56 -25 12 42 23 0
-168 -1 0
-168 97 0
-168 43 0
-168 37 0
-168 48 0
-168 41 0
-168 47 0
-168 -57 0
-168 -62 0
-168 -9 0
168 1 -97 -43 -37 -48 -41 -47 57 62 9 0
-169 57 0
-169 -9 0
-169 40 0
-169 -31 0
-169 -32 0
-169 -5 0
-169 -91 0
-169 -80 0
-169 26 0
-169 49 0
169 -57 9 -40 31 32 5 91 80 -26 -49 0
-170 -89 0
-170 90 0
-170 40 0
-170 52 0
-170 -17 0
-170 36 0
-170 76 0
-170 85 0
-170 56 0
-170 -31 0
170 89 -90 -40 -52 17 -36 -76 -85 -56 31 0
161 162 163 164 165 166 167 168 169 170 0
-171 75 0
-171 24 0
-171 22 0
-171 -81 0
-171 -6 0
-171 54 0
-171 46 0
-171 41 0
-171 -71 0
-171 90 0
171 -75 -24 -22 81 6 -54 -46 -41 71 -90 0
-172 66 0
-172 9 0
-172 -39 0
-172 74 0
-172 -11 0
-172 71 0
-172 68 0
-172 89 0
-172 -87 0
-172 3 0
172 -66 -9 39 -74 11 -71 -68 -89 87 -3 0
-173 -96 0
-173 77 0
-173 31 0
-173 1 0
-173 -48 0
-173 100 0
-173 32 0
-173 7 0
-173 54 0
-173 12 0
173 96 -77 -31 -1 48 -100 -32 -7 -54 -12 0
-174 -57 0
-174 -73 0
-174 -40 0
-174 -1 0
-174 95 0
-174 51 0
-174 -20 0
-174 -87 0
-174 41 0
-174 7 0
174 57 73 40 1 -95 -51 20 87 -41 -7 0
-175 -73 0
-175 -3 0
-175 -41 0
-175 -1 0
-175 14 0
-175 -89 0
-175 21 0
-175 88 0
-175 95 0
-175 64 0
175 73 3 41 1 -14 89 -21 -88 -95 -64 0
-176 -87 0
-176 -28 0
-176 57 0
-176 10 0
-176 -82 0
-176 23 0
-176 -30 0
-176 -67 0
-176 -86 0
-176 14 0
176 87 28 -57 -10 82 -23 30 67 86 -14 0
-177 36 0
-177 -31 0
-177 -20 0
-177 63 0
-177 -9 0
-177 26 0
-177 -96 0
-177 -11 0
-177 29 0
-177 -69 0
177 -36 31 20 -63 9 -26 96 11 -29 69 0
-178 -1 0
-178 38 0
-178 13 0
-178 43 0
-178 9 0
-178 99 0
-178 -31 0
-178 -7 0
-178 67 0
-178 87 0
178 1 -38 -13 -43 -9 -99 31 7 -67 -87 0
-179 49 0
-179 6 0
-179 -11 0
-179 -98 0
-179 69 0
-179 -7 0
-179 78 0
-179 100 0
-179 51 0
-179 45 0
179 -49 -6 11 98 -69 7 -78 -100 -51 -45 0
-180 52 0
-180 -15 0
-180 57 0
-180 -25 0
-180 47 0
-180 31 0
-180 -27 0
-180 -50 0
-180 3 0
-180 100 0
180 -52 15 -57 25 -47 -31 27 50 -3 -100 0
171 172 173 174 175 176 177 178 179 180 0
-181 -5 0
-181 84 0
-181 -6 0
-181 -43 0
-181 61 0
-181 47 0
-181 -32 0
-181 28 0
-181 -2 0
-181 -60 0
181 5 -84 6 43 -61 -47 32 -28 2 60 0
-182 79 0
-182 -40 0
-182 76 0
-182 53 0
-182 49 0
-182 -48 0
-182 35 0
-182 -71 0
-182 -45 0
-182 78 0
182 -79 40 -76 -53 -49 48 -35 71 45 -78 0
-183 -50 0
-183 67 0
-183 2 0
-183 71 0
-183 -27 0
-183 -89 0
-183 98 0
-183 -76 0
-183 -55 0
-183 -68 0
183 50 -67 -2 -71 27 89 -98 76 55 68 0
-184 98 0
-184 -62 0
-184 -64 0
-184 -26 0
-184 10 0
-184 -83 0
-184 -92 0
-184 -47 0
-184 31 0
-184 -32 0
184 -98 62 64 26 -10 83 92 47 -31 32 0
-185 29 0
-185 71 0
-185 -62 0
-185 -19 0
-185 21 0
-185 -42 0
-185 -24 0
-185 -85 0
-185 -57 0
-185 94 0
185 -29 -71 62 19 -21 42 24 85 57 -94 0
-186 97 0
-186 71 0
-186 -67 0
-186 28 0
-186 -87 0
-186 -14 0
-186 -53 0
-186 80 0
-186 -50 0
-186 -48 0
186 -97 -71 67 -28 87 14 53 -80 50 48 0
-187 -49 0
-187 87 0
-187 -35 0
-187 57 0
-187 -41 0
-187 5 0
-187 -91 0
-187 9 0
-187 -18 0
-187 78 0
187 49 -87 35 -57 41 -5 91 -9 18 -78 0
-188 30 0
-188 -78 0
-188 71 0
-188 -82 0
-188 -14 0
-188 -92 0
-188 -9 0
-188 43 0
-188 -75 0
-188 47 0
188 -30 78 -71 82 14 92 9 -43 75 -47 0
-189 -81 0
-189 -63 0
-189 42 0
-189 93 0
-189 -95 0
-189 17 0
-189 -68 0
-189 46 0
-189 86 0
-189 59 0
189 81 63 -42 -93 95 -17 68 -46 -86 -59 0
-190 -94 0
-190 -65 0
-190 47 0
-190 -22 0
-190 -72 0
-190 -50 0
-190 -5 0
-190 -26 0
-190 -56 0
-190 96 0
190 94 65 -47 22 72 50 5 26 56 -96 0
181 182 183 184 185 186 187 188 189 190 0
-191 79 0
-191 23 0
-191 -18 0
-191 -72 0
-191 -68 0
-191 38 0
-191 -71 0
-191 -29 0
-191 -65 0
-191 -48 0
191 -79 -23 18 72 68 -38 71 29 65 48 0
-192 11 0
-192 -80 0
-192 34 0
-192 -49 0
-192 77 0
-192 70 0
-192 16 0
-192 81 0
-192 99 0
-192 65 0
192 -11 80 -34 49 -77 -70 -16 -81 -99 -65 0
-193 -55 0
-193 -16 0
-193 41 0
-193 -6 0
-193 -97 0
-193 56 0
-193 -29 0
-193 5 0
-193 32 0
-193 -47 0
193 55 16 -41 6 97 -56 29 -5 -32 47 0
-194 -50 0
-194 78 0
-194 82 0
-194 -3 0
-194 95 0
-194 40 0
-194 16 0
-194 -37 0
-194 7 0
-194 -18 0
194 50 -78 -82 3 -95 -40 -16 37 -7 18 0
-195 -9 0
-195 86 0
-195 60 0
-195 16 0
-195 10 0
-195 -70 0
-195 50 0
-195 -77 0
-195 89 0
-195 35 0
195 9 -86 -60 -16 -10 70 -50 77 -89 -35 0
-196 75 0
-196 100 0
-196 -43 0
-196 -39 0
-196 49 0
-196 -80 0
-196 27 0
-196 24 0
-196 -41 0
-196 -9 0
196 -75 -100 43 39 -49 80 -27 -24 41 9 0
-197 -47 0
-197 97 0
-197 -63 0
-197 30 0
-197 -48 0
-197 -92 0
-197 45 0
-197 38 0
-197 3 0
-197 -98 0
197 47 -97 63 -30 48 92 -45 -38 -3 98 0
-198 27 0
-198 81 0
-198 -16 0
-198 80 0
-198 90 0
-198 -23 0
-198 96 0
-198 -19 0
-198 -71 0
-198 41 0
198 -27 -81 16 -80 -90 23 -96 19 71 -41 0
-199 60 0
-199 -77 0
-199 -90 0
-199 -8 0
-199 46 0
-199 40 0
-199 -26 0
-199 -59 0
-199 -32 0
-199 64 0
199 -60 77 90 8 -46 -40 26 59 32 -64 0
-200 -33 0
-200 -54 0
-200 -24 0
-200 -65 0
-200 1 0
-200 67 0
-200 -40 0
-200 -8 0
-200 -43 0
-200 -50 0
200 33 54 24 65 -1 -67 40 8 43 50 0
191 192 193 194 195 196 197 198 199 200 0
